107
0 26 37 100 51 67 9 78 77 36 
105 23 74 99 39 58 24 97 15 73 
102 17 87 19 40 8 65 56 16 44 
68 104 5 60 84 47 61 81 69 103 
85 63 89 88 106 14 21 66 59 70 
52 6 33 64 93 92 96 75 3 34 
27 2 71 53 83 7 13 80 29 1 
98 86 57 95 82 54 18 25 22 35 
28 49 42 55 62 20 4 91 76 79 
43 12 30 48 101 45 72 94 41 90 
38 31 11 50 32 10 46 
